43 63 36 80 199 120 142 106 6 1 115 103 35 88 131 140 191 97 31 99 5 42 168 12 62 195 74 156 30 75 23 76 193 15 45 22 118 116 38 95 126 0 89 170 60 130 20 83 160 172 192 26 71 44 153 68 167 48 40 188 34 119 108 11 127 7 70 17 157 8 54 162 25 24 67 197 10 154 58 177 165 86 182 18 190 51 2 57 148 158 128 198 29 147 13 149 4 56 105 41 125 109 79 47 52 61 92 144 151 178 69 104 93 134 180 81 114 78 46 27 163 135 173 185 164 85 28 181 72 169 50 9 19 90 33 137 87 189 184 179 161 166 175 107 21 100 187 122 49 146 113 3 186 65 139 73 133 111 152 102 59 55 98 32 110 129 155 174 145 66 194 37 94 123 176 136 183 84 82 117 53 138 96 196 64 132 150 14 141 124 16 77 171 159 39 101 121 112 91 143